(set-logic ALL)
(set-option :fmf-bound true)
(set-option :produce-models true)
(declare-sort Object 0)

(declare-fun var38 (Bool) Bool)
(declare-fun var50 (Bool) Bool)
(declare-fun var64 (Bool) Bool)
(declare-fun var23 (Bool) Bool)
(declare-fun var92 (Bool) Bool)
(declare-fun var96 (Bool) Bool)
(declare-fun var39 (Bool) Bool)
(declare-fun var90 (Bool) Bool)
(declare-fun var44 (Bool) Bool)
(declare-fun var26 (Bool) Bool)
(declare-fun var8 (Bool) Bool)
(declare-fun var25 (Bool) Bool)
(declare-fun var42 (Bool) Bool)
(declare-fun var100 (Bool) Bool)
(declare-fun var51 (Bool) Bool)
(declare-fun var18 (Bool) Bool)
(declare-fun var46 (Bool) Bool)
(declare-fun var41 (Bool) Bool)
(declare-fun var73 (Bool) Bool)
(declare-fun var57 (Bool) Bool)
(declare-fun var88 (Bool) Bool)
(declare-fun var82 (Bool) Bool)
(declare-fun var65 (Bool) Bool)
(declare-fun var40 (Bool) Bool)
(declare-fun var84 (Bool) Bool)
(declare-fun var16 (Bool) Bool)
(declare-fun var86 (Bool) Bool)
(declare-fun var79 (Bool) Bool)
(declare-fun var34 (Bool) Bool)
(declare-fun var76 (Bool) Bool)
(declare-fun var45 (Bool) Bool)
(declare-fun var70 (Bool) Bool)
(declare-fun var99 (Bool) Bool)
(declare-fun var77 (Bool) Bool)
(declare-fun var35 (Bool) Bool)
(declare-fun var60 (Bool) Bool)
(declare-fun var32 (Bool) Bool)
(declare-fun var93 (Bool) Bool)
(declare-fun var17 (Bool) Bool)
(declare-fun var15 (Bool) Bool)
(declare-fun var48 (Bool) Bool)
(declare-fun var62 (Bool) Bool)
(declare-fun var21 (Bool) Bool)
(declare-fun var22 (Bool) Bool)
(declare-fun var63 (Bool) Bool)
(declare-fun var87 (Bool) Bool)
(declare-fun var36 (Bool) Bool)
(declare-fun var20 (Bool) Bool)
(declare-fun var59 (Bool) Bool)
(declare-fun var3 (Bool) Bool)
(declare-fun var83 (Bool) Bool)
(declare-fun var12 (Bool) Bool)
(declare-fun var14 (Bool) Bool)
(declare-fun var4 (Bool) Bool)
(declare-fun var91 (Bool) Bool)
(declare-fun var85 (Bool) Bool)
(declare-fun var61 (Bool) Bool)
(declare-fun var81 (Bool) Bool)
(declare-fun var30 (Bool) Bool)
(declare-fun var68 (Bool) Bool)
(declare-fun var1 (Bool) Bool)
(declare-fun var72 (Bool) Bool)
(declare-fun var24 (Bool) Bool)
(declare-fun var9 (Bool) Bool)
(declare-fun var95 (Bool) Bool)
(declare-fun var78 (Bool) Bool)
(declare-fun var53 (Bool) Bool)
(declare-fun var97 (Bool) Bool)
(declare-fun var37 (Bool) Bool)
(declare-fun var56 (Bool) Bool)
(declare-fun var74 (Bool) Bool)
(declare-fun var13 (Bool) Bool)
(declare-fun var2 (Bool) Bool)
(declare-fun var69 (Bool) Bool)
(declare-fun var49 (Bool) Bool)
(declare-fun var47 (Bool) Bool)
(declare-fun var80 (Bool) Bool)
(declare-fun var27 (Bool) Bool)
(declare-fun var5 (Bool) Bool)
(declare-fun var66 (Bool) Bool)
(declare-fun var43 (Bool) Bool)
(declare-fun var94 (Bool) Bool)
(declare-fun var89 (Bool) Bool)
(declare-fun var10 (Bool) Bool)
(declare-fun var52 (Bool) Bool)
(declare-fun var6 (Bool) Bool)
(declare-fun var71 (Bool) Bool)
(declare-fun var7 (Bool) Bool)
(declare-fun var67 (Bool) Bool)
(declare-fun var33 (Bool) Bool)
(declare-fun var19 (Bool) Bool)
(declare-fun var75 (Bool) Bool)
(declare-fun var29 (Bool) Bool)
(declare-fun var54 (Bool) Bool)
(declare-fun var98 (Bool) Bool)
(declare-fun var31 (Bool) Bool)
(declare-fun var55 (Bool) Bool)
(declare-fun var11 (Bool) Bool)
(declare-fun var28 (Bool) Bool)
(declare-fun var58 (Bool) Bool)
(declare-fun GTE (Bool Bool) Bool)
(define-fun implies ((p Bool)(q Bool)) Bool (or (not p) q))

(assert (forall ((x Bool)) (not(or (var38 x) (var50 x)))))
(assert (forall ((x Bool)) (not(or (not(var64 x)) (not(var23 x))))))
(assert (forall ((x Bool)) (not(or (not(var92 x)) (var96 x)))))
(assert (forall ((x Bool)) (not(or (not(var39 x)) (not(var90 x))))))
(assert (forall ((x Bool)) (not(or (not(var44 x)) (not(var26 x))))))
(assert (forall ((x Bool)) (not(or (var8 x) (not(var25 x))))))
(assert (forall ((x Bool)) (not(or (not(var38 x)) (var42 x)))))
(assert (forall ((x Bool)) (not(or (not(var100 x)) (not(var51 x))))))
(assert (forall ((x Bool)) (not(or (var18 x) (var46 x)))))
(assert (forall ((x Bool)) (not(or (var41 x) (var73 x)))))
(assert (forall ((x Bool)) (not(or (not(var57 x)) (var88 x)))))
(assert (forall ((x Bool)) (not(or (var25 x) (not(var82 x))))))
(assert (forall ((x Bool)) (not(or (not(var65 x)) (not(var40 x))))))
(assert (forall ((x Bool)) (not(or (not(var84 x)) (not(var65 x))))))
(assert (forall ((x Bool)) (not(or (var18 x) (var16 x)))))
(assert (forall ((x Bool)) (not(or (var50 x) (var86 x)))))
(assert (forall ((x Bool)) (not(or (var79 x) (not(var8 x))))))
(assert (forall ((x Bool)) (not(or (var34 x) (not(var76 x))))))
(assert (forall ((x Bool)) (not(or (var45 x) (var41 x)))))
(assert (forall ((x Bool)) (not(or (var70 x) (not(var99 x))))))
(assert (forall ((x Bool)) (not(or (not(var77 x)) (var35 x)))))
(assert (forall ((x Bool)) (not(or (not(var18 x)) (not(var65 x))))))
(assert (forall ((x Bool)) (not(or (not(var60 x)) (not(var32 x))))))
(assert (forall ((x Bool)) (not(or (var93 x) (not(var17 x))))))
(assert (forall ((x Bool)) (not(or (var15 x) (not(var48 x))))))
(assert (forall ((x Bool)) (not(or (not(var62 x)) (not(var60 x))))))
(assert (forall ((x Bool)) (not(or (var96 x) (not(var21 x))))))
(assert (forall ((x Bool)) (not(or (not(var35 x)) (not(var22 x))))))
(assert (forall ((x Bool)) (not(or (not(var63 x)) (var87 x)))))
(assert (forall ((x Bool)) (not(or (not(var36 x)) (var38 x)))))
(assert (forall ((x Bool)) (not(or (not(var20 x)) (not(var35 x))))))
(assert (forall ((x Bool)) (not(or (not(var59 x)) (var62 x)))))
(assert (forall ((x Bool)) (not(or (not(var21 x)) (not(var59 x))))))
(assert (forall ((x Bool)) (not(or (var3 x) (var83 x)))))
(assert (forall ((x Bool)) (not(or (var12 x) (not(var14 x))))))
(assert (forall ((x Bool)) (not(or (var41 x) (not(var4 x))))))
(assert (forall ((x Bool)) (not(or (var91 x) (var85 x)))))
(assert (forall ((x Bool)) (not(or (var61 x) (var81 x)))))
(assert (forall ((x Bool)) (not(or (not(var44 x)) (not(var100 x))))))
(assert (forall ((x Bool)) (not(or (var30 x) (not(var41 x))))))
(assert (forall ((x Bool)) (not(or (var57 x) (var68 x)))))
(assert (forall ((x Bool)) (not(or (var1 x) (not(var72 x))))))
(assert (forall ((x Bool)) (not(or (var70 x) (var81 x)))))
(assert (forall ((x Bool)) (not(or (not(var24 x)) (not(var30 x))))))
(assert (forall ((x Bool)) (not(or (not(var50 x)) (var1 x)))))
(assert (forall ((x Bool)) (not(or (not(var9 x)) (not(var50 x))))))
(assert (forall ((x Bool)) (not(or (not(var88 x)) (var41 x)))))
(assert (forall ((x Bool)) (not(or (var36 x) (not(var14 x))))))
(assert (forall ((x Bool)) (not(or (not(var95 x)) (var78 x)))))
(assert (forall ((x Bool)) (not(or (var53 x) (var9 x)))))
(assert (forall ((x Bool)) (not(or (var97 x) (not(var1 x))))))
(assert (forall ((x Bool)) (not(or (var24 x) (var88 x)))))
(assert (forall ((x Bool)) (not(or (var37 x) (var40 x)))))
(assert (forall ((x Bool)) (not(or (var41 x) (not(var18 x))))))
(assert (forall ((x Bool)) (not(or (var56 x) (not(var78 x))))))
(assert (forall ((x Bool)) (not(or (var23 x) (not(var85 x))))))
(assert (forall ((x Bool)) (not(or (not(var74 x)) (var4 x)))))
(assert (forall ((x Bool)) (not(or (var56 x) (var26 x)))))
(assert (forall ((x Bool)) (not(or (not(var13 x)) (not(var2 x))))))
(assert (forall ((x Bool)) (not(or (not(var2 x)) (not(var69 x))))))
(assert (forall ((x Bool)) (not(or (var49 x) (not(var88 x))))))
(assert (forall ((x Bool)) (not(or (var79 x) (not(var70 x))))))
(assert (forall ((x Bool)) (not(or (not(var47 x)) (var45 x)))))
(assert (forall ((x Bool)) (not(or (not(var80 x)) (var27 x)))))
(assert (forall ((x Bool)) (not(or (var5 x) (var4 x)))))
(assert (forall ((x Bool)) (not(or (not(var95 x)) (var40 x)))))
(assert (forall ((x Bool)) (not(or (var93 x) (not(var38 x))))))
(assert (forall ((x Bool)) (not(or (var97 x) (var82 x)))))
(assert (forall ((x Bool)) (not(or (var100 x) (var81 x)))))
(assert (forall ((x Bool)) (not(or (var85 x) (not(var66 x))))))
(assert (forall ((x Bool)) (not(or (not(var74 x)) (not(var60 x))))))
(assert (forall ((x Bool)) (not(or (var43 x) (not(var3 x))))))
(assert (forall ((x Bool)) (not(or (not(var94 x)) (not(var36 x))))))
(assert (forall ((x Bool)) (not(or (var18 x) (not(var89 x))))))
(assert (forall ((x Bool)) (not(or (var9 x) (var62 x)))))
(assert (forall ((x Bool)) (not(or (var42 x) (var80 x)))))
(assert (forall ((x Bool)) (not(or (var15 x) (not(var79 x))))))
(assert (forall ((x Bool)) (not(or (not(var100 x)) (var9 x)))))
(assert (forall ((x Bool)) (not(or (not(var10 x)) (var22 x)))))
(assert (forall ((x Bool)) (not(or (not(var1 x)) (var52 x)))))
(assert (forall ((x Bool)) (not(or (var81 x) (var20 x)))))
(assert (forall ((x Bool)) (not(or (var24 x) (var69 x)))))
(assert (forall ((x Bool)) (not(or (var21 x) (var56 x)))))
(assert (forall ((x Bool)) (not(or (not(var34 x)) (var25 x)))))
(assert (forall ((x Bool)) (not(or (var6 x) (var14 x)))))
(assert (forall ((x Bool)) (not(or (var88 x) (var30 x)))))
(assert (forall ((x Bool)) (not(or (not(var37 x)) (not(var71 x))))))
(assert (forall ((x Bool)) (not(or (not(var8 x)) (var7 x)))))
(assert (forall ((x Bool)) (not(or (var78 x) (var93 x)))))
(assert (forall ((x Bool)) (not(or (not(var39 x)) (var13 x)))))
(assert (forall ((x Bool)) (not(or (not(var53 x)) (var80 x)))))
(assert (forall ((x Bool)) (not(or (not(var44 x)) (var57 x)))))
(assert (forall ((x Bool)) (not(or (var72 x) (var92 x)))))
(assert (forall ((x Bool)) (not(or (var17 x) (var34 x)))))
(assert (forall ((x Bool)) (not(or (var26 x) (var15 x)))))
(assert (forall ((x Bool)) (not(or (not(var10 x)) (var60 x)))))
(assert (forall ((x Bool)) (not(or (not(var8 x)) (not(var94 x))))))
(assert (forall ((x Bool)) (not(or (not(var17 x)) (var42 x)))))
(assert (forall ((x Bool)) (not(or (not(var16 x)) (not(var67 x))))))
(assert (forall ((x Bool)) (not(or (var33 x) (not(var92 x))))))
(assert (forall ((x Bool))  (exists ((x1 Bool)) (and(GTE x x1)  (implies (var8 x1) (var2 x))))))
(assert (forall ((x Bool))  (exists ((x1 Bool)) (and(GTE x x1)  (implies (not(var69 x1)) (var4 x))))))
(assert (forall ((x Bool))  (exists ((x1 Bool)) (and(GTE x x1)  (implies (var45 x1) (not(var90 x)))))))
(assert (forall ((x Bool))  (exists ((x1 Bool)) (and(GTE x x1)  (implies (not(var5 x1)) (var24 x))))))
(assert (forall ((x Bool))  (exists ((x1 Bool)) (and(GTE x x1)  (implies (not(var19 x1)) (var68 x))))))
(assert (forall ((x Bool))  (exists ((x1 Bool)) (and(GTE x x1)  (implies (var60 x1) (not(var75 x)))))))
(assert (forall ((x Bool))  (exists ((x1 Bool)) (and(GTE x x1)  (implies (not(var51 x1)) (not(var14 x)))))))
(assert (forall ((x Bool))  (exists ((x1 Bool)) (and(GTE x x1)  (implies (not(var71 x1)) (not(var80 x)))))))
(assert (forall ((x Bool))  (exists ((x1 Bool)) (and(GTE x x1)  (implies (var39 x1) (var43 x))))))
(assert (forall ((x Bool))  (exists ((x1 Bool)) (and(GTE x x1)  (implies (not(var29 x1)) (var83 x))))))
(assert (forall ((x Bool))  (exists ((x1 Bool)) (and(GTE x x1)  (implies (not(var26 x1)) (var32 x))))))
(assert (forall ((x Bool))  (exists ((x1 Bool)) (and(GTE x x1)  (implies (var62 x1) (var85 x))))))
(assert (forall ((x Bool))  (exists ((x1 Bool)) (and(GTE x x1)  (implies (not(var92 x1)) (var63 x))))))
(assert (forall ((x Bool))  (exists ((x1 Bool)) (and(GTE x x1)  (implies (not(var8 x1)) (not(var56 x)))))))
(assert (forall ((x Bool))  (exists ((x1 Bool)) (and(GTE x x1)  (implies (not(var82 x1)) (var44 x))))))
(assert (forall ((x Bool))  (exists ((x1 Bool)) (and(GTE x x1)  (implies (not(var53 x1)) (not(var10 x)))))))
(assert (forall ((x Bool))  (exists ((x1 Bool)) (and(GTE x x1)  (implies (not(var85 x1)) (var62 x))))))
(assert (forall ((x Bool))  (exists ((x1 Bool)) (and(GTE x x1)  (implies (var47 x1) (not(var17 x)))))))
(assert (forall ((x Bool))  (exists ((x1 Bool)) (and(GTE x x1)  (implies (var69 x1) (not(var42 x)))))))
(assert (forall ((x Bool))  (exists ((x1 Bool)) (and(GTE x x1)  (implies (not(var79 x1)) (var90 x))))))
(assert (forall ((x Bool))  (exists ((x1 Bool)) (and(GTE x x1)  (implies (var22 x1) (var80 x))))))
(assert (forall ((x Bool))  (exists ((x1 Bool)) (and(GTE x x1)  (implies (var54 x1) (not(var35 x)))))))
(assert (forall ((x Bool))  (exists ((x1 Bool)) (and(GTE x x1)  (implies (var44 x1) (var2 x))))))
(assert (forall ((x Bool))  (exists ((x1 Bool)) (and(GTE x x1)  (implies (var17 x1) (not(var26 x)))))))
(assert (forall ((x Bool))  (exists ((x1 Bool)) (and(GTE x x1)  (implies (not(var83 x1)) (not(var90 x)))))))
(assert (forall ((x Bool))  (exists ((x1 Bool)) (and(GTE x x1)  (implies (not(var60 x1)) (not(var98 x)))))))
(assert (forall ((x Bool))  (exists ((x1 Bool)) (and(GTE x x1)  (implies (var4 x1) (var78 x))))))
(assert (forall ((x Bool))  (exists ((x1 Bool)) (and(GTE x x1)  (implies (not(var53 x1)) (not(var40 x)))))))
(assert (forall ((x Bool))  (exists ((x1 Bool)) (and(GTE x x1)  (implies (var97 x1) (var83 x))))))
(assert (forall ((x Bool))  (exists ((x1 Bool)) (and(GTE x x1)  (implies (not(var95 x1)) (var65 x))))))
(assert (forall ((x Bool))  (exists ((x1 Bool)) (and(GTE x x1)  (implies (var21 x1) (var60 x))))))
(assert (forall ((x Bool))  (exists ((x1 Bool)) (and(GTE x x1)  (implies (not(var77 x1)) (var88 x))))))
(assert (forall ((x Bool))  (exists ((x1 Bool)) (and(GTE x x1)  (implies (var50 x1) (not(var71 x)))))))
(assert (forall ((x Bool))  (exists ((x1 Bool)) (and(GTE x x1)  (implies (not(var41 x1)) (not(var2 x)))))))
(assert (forall ((x Bool))  (exists ((x1 Bool)) (and(GTE x x1)  (implies (not(var74 x1)) (not(var82 x)))))))
(assert (forall ((x Bool))  (exists ((x1 Bool)) (and(GTE x x1)  (implies (not(var4 x1)) (not(var39 x)))))))
(assert (forall ((x Bool))  (exists ((x1 Bool)) (and(GTE x x1)  (implies (var93 x1) (not(var18 x)))))))
(assert (forall ((x Bool))  (exists ((x1 Bool)) (and(GTE x x1)  (implies (not(var38 x1)) (not(var30 x)))))))
(assert (forall ((x Bool))  (exists ((x1 Bool)) (and(GTE x x1)  (implies (var26 x1) (not(var30 x)))))))
(assert (forall ((x Bool))  (exists ((x1 Bool)) (and(GTE x x1)  (implies (not(var43 x1)) (not(var63 x)))))))
(assert (forall ((x Bool))  (exists ((x1 Bool)) (and(GTE x x1)  (implies (not(var82 x1)) (var73 x))))))
(assert (forall ((x Bool))  (exists ((x1 Bool)) (and(GTE x x1)  (implies (var44 x1) (not(var41 x)))))))
(assert (forall ((x Bool))  (exists ((x1 Bool)) (and(GTE x x1)  (implies (not(var16 x1)) (not(var98 x)))))))
(assert (forall ((x Bool))  (exists ((x1 Bool)) (and(GTE x x1)  (implies (var92 x1) (var13 x))))))
(assert (forall ((x Bool))  (exists ((x1 Bool)) (and(GTE x x1)  (implies (not(var82 x1)) (not(var41 x)))))))
(assert (forall ((x Bool))  (exists ((x1 Bool)) (and(GTE x x1)  (implies (var93 x1) (not(var68 x)))))))
(assert (forall ((x Bool))  (exists ((x1 Bool)) (and(GTE x x1)  (implies (var99 x1) (not(var88 x)))))))
(assert (forall ((x Bool))  (exists ((x1 Bool)) (and(GTE x x1)  (implies (var37 x1) (not(var54 x)))))))
(assert (forall ((x Bool))  (exists ((x1 Bool)) (and(GTE x x1)  (implies (var15 x1) (not(var61 x)))))))
(assert (forall ((x Bool))  (exists ((x1 Bool)) (and(GTE x x1)  (implies (not(var15 x1)) (not(var47 x)))))))
(assert (forall ((x Bool))  (exists ((x1 Bool)) (and(GTE x x1)  (implies (var70 x1) (not(var95 x)))))))
(assert (forall ((x Bool))  (exists ((x1 Bool)) (and(GTE x x1)  (implies (var21 x1) (not(var19 x)))))))
(assert (forall ((x Bool))  (exists ((x1 Bool)) (and(GTE x x1)  (implies (not(var82 x1)) (not(var18 x)))))))
(assert (forall ((x Bool))  (exists ((x1 Bool)) (and(GTE x x1)  (implies (var63 x1) (var98 x))))))
(assert (forall ((x Bool))  (exists ((x1 Bool)) (and(GTE x x1)  (implies (not(var83 x1)) (not(var70 x)))))))
(assert (forall ((x Bool))  (exists ((x1 Bool)) (and(GTE x x1)  (implies (var74 x1) (var91 x))))))
(assert (forall ((x Bool))  (exists ((x1 Bool)) (and(GTE x x1)  (implies (var4 x1) (not(var10 x)))))))
(assert (forall ((x Bool))  (exists ((x1 Bool)) (and(GTE x x1)  (implies (var37 x1) (var87 x))))))
(assert (forall ((x Bool))  (exists ((x1 Bool)) (and(GTE x x1)  (implies (var53 x1) (not(var94 x)))))))
(assert (forall ((x Bool))  (exists ((x1 Bool)) (and(GTE x x1)  (implies (not(var98 x1)) (var25 x))))))
(assert (forall ((x Bool))  (exists ((x1 Bool)) (and(GTE x x1)  (implies (var90 x1) (var50 x))))))
(assert (forall ((x Bool))  (exists ((x1 Bool)) (and(GTE x x1)  (implies (not(var7 x1)) (not(var88 x)))))))
(assert (forall ((x Bool))  (exists ((x1 Bool)) (and(GTE x x1)  (implies (var77 x1) (var67 x))))))
(assert (forall ((x Bool))  (exists ((x1 Bool)) (and(GTE x x1)  (implies (var30 x1) (not(var89 x)))))))
(assert (forall ((x Bool))  (exists ((x1 Bool)) (and(GTE x x1)  (implies (not(var16 x1)) (not(var19 x)))))))
(assert (forall ((x Bool))  (exists ((x1 Bool)) (and(GTE x x1)  (implies (not(var36 x1)) (var49 x))))))
(assert (forall ((x Bool))  (exists ((x1 Bool)) (and(GTE x x1)  (implies (var59 x1) (var83 x))))))
(assert (forall ((x Bool))  (exists ((x1 Bool)) (and(GTE x x1)  (implies (not(var32 x1)) (not(var83 x)))))))
(assert (forall ((x Bool))  (exists ((x1 Bool)) (and(GTE x x1)  (implies (not(var65 x1)) (var52 x))))))
(assert (forall ((x Bool))  (exists ((x1 Bool)) (and(GTE x x1)  (implies (not(var31 x1)) (not(var54 x)))))))
(assert (forall ((x Bool))  (exists ((x1 Bool)) (and(GTE x x1)  (implies (not(var25 x1)) (not(var91 x)))))))
(assert (forall ((x Bool))  (exists ((x1 Bool)) (and(GTE x x1)  (implies (not(var78 x1)) (not(var56 x)))))))
(assert (forall ((x Bool))  (exists ((x1 Bool)) (and(GTE x x1)  (implies (var6 x1) (not(var27 x)))))))
(assert (forall ((x Bool))  (exists ((x1 Bool)) (and(GTE x x1)  (implies (var50 x1) (not(var62 x)))))))
(assert (forall ((x Bool))  (exists ((x1 Bool)) (and(GTE x x1)  (implies (not(var71 x1)) (var94 x))))))
(assert (forall ((x Bool))  (exists ((x1 Bool)) (and(GTE x x1)  (implies (var67 x1) (not(var94 x)))))))
(assert (forall ((x Bool))  (exists ((x1 Bool)) (and(GTE x x1)  (implies (var18 x1) (var55 x))))))
(assert (forall ((x Bool))  (exists ((x1 Bool)) (and(GTE x x1)  (implies (var78 x1) (var69 x))))))
(assert (forall ((x Bool))  (exists ((x1 Bool)) (and(GTE x x1)  (implies (var90 x1) (var26 x))))))
(assert (forall ((x Bool))  (exists ((x1 Bool)) (and(GTE x x1)  (implies (var54 x1) (var83 x))))))
(assert (forall ((x Bool))  (exists ((x1 Bool)) (and(GTE x x1)  (implies (var78 x1) (not(var8 x)))))))
(assert (forall ((x Bool))  (exists ((x1 Bool)) (and(GTE x x1)  (implies (var11 x1) (var28 x))))))
(assert (forall ((x Bool))  (exists ((x1 Bool)) (and(GTE x x1)  (implies (not(var49 x1)) (var89 x))))))
(assert (forall ((x Bool))  (exists ((x1 Bool)) (and(GTE x x1)  (implies (var44 x1) (not(var22 x)))))))
(assert (forall ((x Bool))  (exists ((x1 Bool)) (and(GTE x x1)  (implies (var62 x1) (not(var5 x)))))))
(assert (forall ((x Bool))  (exists ((x1 Bool)) (and(GTE x x1)  (implies (not(var59 x1)) (var85 x))))))
(assert (forall ((x Bool))  (exists ((x1 Bool)) (and(GTE x x1)  (implies (var47 x1) (var8 x))))))
(assert (forall ((x Bool))  (exists ((x1 Bool)) (and(GTE x x1)  (implies (not(var95 x1)) (not(var85 x)))))))
(assert (forall ((x Bool))  (exists ((x1 Bool)) (and(GTE x x1)  (implies (var85 x1) (not(var21 x)))))))
(assert (forall ((x Bool))  (exists ((x1 Bool)) (and(GTE x x1)  (implies (var89 x1) (not(var38 x)))))))
(assert (forall ((x Bool))  (exists ((x1 Bool)) (and(GTE x x1)  (implies (var90 x1) (not(var58 x)))))))
(assert (forall ((x Bool))  (exists ((x1 Bool)) (and(GTE x x1)  (implies (not(var81 x1)) (not(var35 x)))))))
(assert (forall ((x Bool))  (exists ((x1 Bool)) (and(GTE x x1)  (implies (not(var55 x1)) (not(var77 x)))))))
(assert (forall ((x Bool))  (exists ((x1 Bool)) (and(GTE x x1)  (implies (not(var34 x1)) (not(var24 x)))))))
(assert (forall ((x Bool))  (exists ((x1 Bool)) (and(GTE x x1)  (implies (not(var47 x1)) (var79 x))))))
(assert (forall ((x Bool))  (exists ((x1 Bool)) (and(GTE x x1)  (implies (not(var9 x1)) (not(var65 x)))))))
(assert (forall ((x Bool))  (exists ((x1 Bool)) (and(GTE x x1)  (implies (var42 x1) (not(var19 x)))))))
(assert (forall ((x Bool))  (exists ((x1 Bool)) (and(GTE x x1)  (implies (var90 x1) (not(var88 x)))))))
(assert (forall ((x Bool))  (exists ((x1 Bool)) (and(GTE x x1)  (implies (not(var43 x1)) (not(var44 x)))))))
(assert (forall ((x Bool))  (exists ((x1 Bool)) (and(GTE x x1)  (implies (var23 x1) (var20 x))))))
(check-sat)
(get-model)
